(declare-fun x () Int)
(declare-fun x! () Int)
(declare-fun y () Int)
(declare-fun y! () Int)
(define-fun post-f (( parameter0 Int)( parameter1 Int))
 Bool (=> (>= x y) (= x y)))
(define-fun inv-f (( parameter0 Int)( parameter1 Int))
 Bool (= 0 0))

(assert (and (inv-f x y)(not (post-f x y))))
(check-sat)
(get-model)
